(declare-fun e () String)
(declare-fun c () String)
(declare-fun g () String)
(declare-fun b () String)
(declare-fun d () String)
(declare-fun f () String)
(declare-fun a () String)
(declare-fun h () String)
(assert (= (str.++ f "f" b) (str.++ "a" g h "ghe")))
(assert (= (str.++ f d) (str.++ a d)))
(assert (= (str.++ a "bcg" h c) e))

(check-sat)
